Random 0 
2196 278405 247033 242611 290006 285087 256960 252778 262177 275965 243646 276066 245667 257425 240057 271648 258573 265554 314463 240853 252019 288123 285749 212029 275431 266358 273321 244251 225609 277128 236557 272569 1025 232777 234688 276483 279156 261740 226177 2278 295896 2672 283025 260665 233043 247514 228953 281841 255907 268573

EDD 0 
1227 604896 802420 863657 847014 693298 773466 777259 747661 748315 768700 880418 855136 767465 2837 756370 2036 669179 711452 728935 1530 772187 782651 2214 749097 806344 820284 716201 742026 818861 3131 825960 1056 753284 827130 1936 819951 821130 772498 1783 663981 1440 748293 1727 906916 686263 812831 839732 753761 744869

